CPXPARAM_TimeLimit                               7200
CPXPARAM_Read_DataCheck                          1
Parallel mode: deterministic, using up to 8 threads for concurrent optimization.
Tried aggregator 1 time.
LP Presolve eliminated 723 rows and 0 columns.
Reduced LP has 9387 rows, 1801 columns, and 27388 nonzeros.
Presolve time = 0.00 sec. (4.55 ticks)

Iteration log . . .
Iteration:     1   Dual objective     =           963.000000
Perturbation started.
Iteration:   214   Dual objective     =           963.000000
Initializing dual steep norms . . .
Iteration:   215   Dual objective     =           963.000010
Iteration:   465   Dual objective     =           963.015462
Iteration:   691   Dual objective     =           963.016101
Iteration:   930   Dual objective     =           963.016206
Iteration:  1162   Dual objective     =           963.016342
Iteration:  1345   Dual objective     =           963.017126
Iteration:  1516   Dual objective     =           963.017478
Iteration:  1729   Dual objective     =           963.018331
Iteration:  2045   Dual objective     =           963.018682
Iteration:  2327   Dual objective     =           982.490441
Iteration:  2549   Dual objective     =           982.490712
Iteration:  2882   Dual objective     =           982.491131
Removing perturbation.

Dual simplex solved model.

